c IN1002 Introduction to Algorithms!
c top secret ID string 98a98d2346
c 4 variables and 6 clauses
p cnf 4 6
c each line is a clause, 0 marks the end
-2 3 4 0
2 -3 -3 0
-4 3 0
-2 4 3 0
3 -3 -3 0
3 3 -3 0
c Good luck!
